units           real
atom_style      full

pair_style      lj/cut/coul/long 9.0
pair_modify     mix arithmetic

bond_style      hybrid harmonic morse
angle_style     harmonic
dihedral_style  none
improper_style  none

kspace_style    pppm 1e-4

read_data       lmp.data
 
bond_coeff      1  harmonic 529.581    1.012     # OW-HW

angle_coeff     1  37.95  113.24                 # HW-OW-HW

pair_coeff      * *  0.0 0.0
pair_coeff      1 1  0.1554253    3.165492   9.0

neighbor        2.0 bin

timestep        1.0

thermo          1
thermo_style    custom step temp ebond eangle evdwl ecoul elong pe etotal

#fix             1 all nve
#fix             2 all temp/berendsen 300.0 300.0 100.0
fix             1 all npt temp 300.0 300.0 500.0 iso 1.0 1.0 1000.0 fixedpoint 0.0 0.0 0.0

fix             2 all chemnetwork cn.inp 10 O H

dump            1 all custom 1 lmp.lammpstrj id type mol x y z fx fy fz
dump            2 all xyz    1 lmp.xyz
dump_modify     2 element O H

#velocity        all create 300.0 4928459 rot yes dist gaussian
#velocity        all zero linear

run             10
write_data      new.data
